Route #1: 99 63 124 87 144 80 105 18 54 42 79 121 44 152 103 86 5
Route #2: 36 101 27 108 100 19 50 40 31 24 133 70 141 11 39 120 82 142 102
Route #3: 95 59 112 53 51 146 84 37 10 72 32 28 29 2 16 109
Route #4: 14 85 156 125 115 97 148 116 153 75 160 4 131 151 38 96 17 159
Route #5: 15 52 128 35 126 127 61 58 56 155 47 118 123 62 162 68 48
Route #6: 26 165 78 41 74 33 106 166 90 161 91 49 64 147 20 117 43 66
Route #7: 138 94 107 129 104 12 57 77 13 1 122 111 88 136 114 163 145 8
Route #8: 89 6 7 137 83 69 22 73 25 93 9 157 92 30 46 140 119 134
Route #9: 3 130 143 55 149 21 158 135 150 98 45 81 164 34 65 110 76
Route #10: 23 139 154 132 60 113 71 67
Cost 22747
